Calculando min-max:
Criando instancia min-C...
Instancia criada.
Resolvendo instancia...
GLPSOL--GLPK LP/MIP Solver 5.0
Parameter(s) specified in the command line:
 --write /tmp/tmph_n70ilq.glpk.raw --wglp /tmp/tmpg7j1yan9.glpk.glp --cpxlp
 /tmp/tmpy_1y9bwc.pyomo.lp
Reading problem data from '/tmp/tmpy_1y9bwc.pyomo.lp'...
/tmp/tmpy_1y9bwc.pyomo.lp:294406: warning: lower bound of variable 'x2' redefined
/tmp/tmpy_1y9bwc.pyomo.lp:294406: warning: upper bound of variable 'x2' redefined
50724 rows, 25891 columns, 116201 non-zeros
25891 integer variables, 25860 of which are binary
320266 lines were read
Writing problem data to '/tmp/tmpg7j1yan9.glpk.glp'...
227798 lines were written
GLPK Integer Optimizer 5.0
50724 rows, 25891 columns, 116201 non-zeros
25891 integer variables, 25860 of which are binary
Preprocessing...
179 hidden packing inequaliti(es) were detected
6419 hidden covering inequaliti(es) were detected
99 constraint coefficient(s) were reduced
23780 rows, 9405 columns, 59217 non-zeros
9405 integer variables, 9375 of which are binary
Scaling...
 A: min|aij| =  1.000e+00  max|aij| =  3.100e+01  ratio =  3.100e+01
GM: min|aij| =  4.318e-01  max|aij| =  2.316e+00  ratio =  5.364e+00
EQ: min|aij| =  1.935e-01  max|aij| =  1.000e+00  ratio =  5.167e+00
2N: min|aij| =  2.500e-01  max|aij| =  1.438e+00  ratio =  5.750e+00
Constructing initial basis...
Size of triangular part is 23780
Solving LP relaxation...
GLPK Simplex Optimizer 5.0
23780 rows, 9405 columns, 59217 non-zeros
      0: obj =   0.000000000e+00 inf =   6.338e+01 (103)
Perturbing LP to avoid stalling [200]...
   1052: obj =   9.504761909e+01 inf =   3.728e-07 (0) 3
Removing LP perturbation [2053]...
*  2053: obj =   1.959586466e-01 inf =   1.110e-16 (0) 7
OPTIMAL LP SOLUTION FOUND
Integer optimization begins...
Long-step dual simplex will be used
+  2053: mip =     not found yet >=              -inf        (1; 0)
+  9949: >>>>>   3.000000000e+00 >=   3.000000000e+00   0.0% (66; 26)
+  9949: mip =   3.000000000e+00 >=     tree is empty   0.0% (0; 183)
INTEGER OPTIMAL SOLUTION FOUND
Time used:   5.8 secs
Memory used: 46.4 Mb (48703127 bytes)
Writing MIP solution to '/tmp/tmph_n70ilq.glpk.raw'...
76624 lines were written
Maximos: {'E': 22.8594, 'C': 99}
Minimos: {'E': 0.611782, 'C': 3.0}
Resolvendo instancia...
GLPSOL--GLPK LP/MIP Solver 5.0
Parameter(s) specified in the command line:
 --write /tmp/tmpfbxs_abl.glpk.raw --wglp /tmp/tmpih6rcmc4.glpk.glp --cpxlp
 /tmp/tmpdk559gcf.pyomo.lp
Reading problem data from '/tmp/tmpdk559gcf.pyomo.lp'...
/tmp/tmpdk559gcf.pyomo.lp:294398: warning: lower bound of variable 'x3' redefined
/tmp/tmpdk559gcf.pyomo.lp:294398: warning: upper bound of variable 'x3' redefined
50724 rows, 25892 columns, 116201 non-zeros
25891 integer variables, 25860 of which are binary
320258 lines were read
Writing problem data to '/tmp/tmpih6rcmc4.glpk.glp'...
227791 lines were written
GLPK Integer Optimizer 5.0
50724 rows, 25892 columns, 116201 non-zeros
25891 integer variables, 25860 of which are binary
Preprocessing...
179 hidden packing inequaliti(es) were detected
6419 hidden covering inequaliti(es) were detected
99 constraint coefficient(s) were reduced
23780 rows, 9405 columns, 59217 non-zeros
9405 integer variables, 9375 of which are binary
Scaling...
 A: min|aij| =  1.000e+00  max|aij| =  3.100e+01  ratio =  3.100e+01
GM: min|aij| =  4.318e-01  max|aij| =  2.316e+00  ratio =  5.364e+00
EQ: min|aij| =  1.935e-01  max|aij| =  1.000e+00  ratio =  5.167e+00
2N: min|aij| =  2.500e-01  max|aij| =  1.438e+00  ratio =  5.750e+00
Constructing initial basis...
Size of triangular part is 23780
Solving LP relaxation...
GLPK Simplex Optimizer 5.0
23780 rows, 9405 columns, 59217 non-zeros
      0: obj =  -2.749876414e-02 inf =   6.338e+01 (103)
Perturbing LP to avoid stalling [200]...
   1072: obj =   2.835820800e-01 inf =   1.872e-09 (0) 4
Removing LP perturbation [1491]...
*  1491: obj =  -8.673617380e-19 inf =   8.882e-16 (0) 3
OPTIMAL LP SOLUTION FOUND
Integer optimization begins...
Long-step dual simplex will be used
+  1491: mip =     not found yet >=              -inf        (1; 0)
+  2086: >>>>>  -2.256598357e-19 >=   0.000000000e+00   0.7% (13; 1)
+  2086: mip =  -2.256598357e-19 >=     tree is empty   0.0% (0; 27)
INTEGER OPTIMAL SOLUTION FOUND
Time used:   1.2 secs
Memory used: 42.7 Mb (44755519 bytes)
Writing MIP solution to '/tmp/tmpfbxs_abl.glpk.raw'...
76625 lines were written

Resultados:

E: 0.0 -- 0.611782 mA
C: 0.020833333333333332 -- 5.0 points
WEIGHTED: 0.0
Total Solving time: 1.3928875923156738 s
Total elapsed time since execution: 17.98381757736206
